c Sudoku solution
p cnf 729 0
125 0
136 0
191 0
219 0
228 0
313 0
367 0
386 0
514 0
526 0
552 0
563 0
659 0
673 0
685 0
729 0
748 0
821 0
835 0
415 0
545 0
611 0
843 0
862 0
887 0
923 0
433 0
539 0
638 0
324 0
947 0
969 0
457 0
468 0
441 0
422 0
627 0
692 0
164 0
644 0
666 0
246 0
954 0
856 0
818 0
932 0
916 0
734 0
717 0
112 0
331 0
237 0
149 0
342 0
177 0
597 0
489 0
284 0
272 0
782 0
793 0
776 0
474 0
496 0
879 0
894 0
399 0
183 0
295 0
378 0
158 0
253 0
261 0
355 0
751 0
765 0
975 0
981 0
998 0
571 0
588 0
